(set-logic QF_LIA)
(declare-fun y () Int)
(define-fun x!0 () Bool (<= 0 y))
(declare-fun x () Int)
(declare-fun z () Int)
(define-fun x!1 () Int (+ z y x))
(define-fun x!2 () Bool (<= 0 x!1))
(assert x!0)
(get-abduct abd x!2)